\ Model LargeSI
\ LP format - for model browsing. Use MPS format to capture full model detail.
Maximize
  0.1 X[0,0] + 0.1 X[0,1] + 0.1 X[0,2] + 0.1 X[0,3] + 0.1 X[0,4]
   + 0.1 X[0,5] + 0.1 X[0,6] + 0.1 X[0,7] + 0.1 X[0,8] + 0.1 X[0,9]
   + 0.1 X[1,0] + 0.1 X[1,1] + 0.1 X[1,2] + 0.1 X[1,3] + 0.1 X[1,4]
   + 0.1 X[1,5] + 0.1 X[1,6] + 0.1 X[1,7] + 0.1 X[1,8] + 0.1 X[1,9]
   + 0.1 X[2,0] + 0.1 X[2,1] + 0.1 X[2,2] + 0.1 X[2,3] + 0.1 X[2,4]
   + 0.1 X[2,5] + 0.1 X[2,6] + 0.1 X[2,7] + 0.1 X[2,8] + 0.1 X[2,9]
   + 0.1 X[3,0] + 0.1 X[3,1] + 0.1 X[3,2] + 0.1 X[3,3] + 0.1 X[3,4]
   + 0.1 X[3,5] + 0.1 X[3,6] + 0.1 X[3,7] + 0.1 X[3,8] + 0.1 X[3,9]
   + 0.1 X[4,0] + 0.1 X[4,1] + 0.1 X[4,2] + 0.1 X[4,3] + 0.1 X[4,4]
   + 0.1 X[4,5] + 0.1 X[4,6] + 0.1 X[4,7] + 0.1 X[4,8] + 0.1 X[4,9]
   + 0.1 X[5,0] + 0.1 X[5,1] + 0.1 X[5,2] + 0.1 X[5,3] + 0.1 X[5,4]
   + 0.1 X[5,5] + 0.1 X[5,6] + 0.1 X[5,7] + 0.1 X[5,8] + 0.1 X[5,9]
   + 0.1 X[6,0] + 0.1 X[6,1] + 0.1 X[6,2] + 0.1 X[6,3] + 0.1 X[6,4]
   + 0.1 X[6,5] + 0.1 X[6,6] + 0.1 X[6,7] + 0.1 X[6,8] + 0.1 X[6,9]
   + 0.1 X[7,0] + 0.1 X[7,1] + 0.1 X[7,2] + 0.1 X[7,3] + 0.1 X[7,4]
   + 0.1 X[7,5] + 0.1 X[7,6] + 0.1 X[7,7] + 0.1 X[7,8] + 0.1 X[7,9]
   + 0.1 X[8,0] + 0.1 X[8,1] + 0.1 X[8,2] + 0.1 X[8,3] + 0.1 X[8,4]
   + 0.1 X[8,5] + 0.1 X[8,6] + 0.1 X[8,7] + 0.1 X[8,8] + 0.1 X[8,9]
   + 0.1 X[9,0] + 0.1 X[9,1] + 0.1 X[9,2] + 0.1 X[9,3] + 0.1 X[9,4]
   + 0.1 X[9,5] + 0.1 X[9,6] + 0.1 X[9,7] + 0.1 X[9,8] + 0.1 X[9,9]
Subject To
 Constraint_on_starting_seed: Z[0] + Z[1] + Z[2] + Z[3] + Z[4] + Z[5]
   + Z[6] + Z[7] + Z[8] + Z[9] <= 2
 R1: X[0,0] - Z[2] <= 0
 R2: X[1,0] - Z[0] <= 0
 R3: X[2,0] - Z[0] - Z[1] <= 0
 R4: X[3,0] - Z[0] - Z[2] - Z[5] <= 0
 R5: X[4,0] - Z[3] <= 0
 R6: X[5,0] - Z[0] <= 0
 R7: X[6,0] - Z[1] <= 0
 R8: X[7,0] - Z[5] <= 0
 R9: X[8,0] - Z[3] <= 0
 R10: X[9,0] - Z[2] <= 0
 R11: X[0,1] - Z[1] - Z[2] <= 0
 R12: X[1,1] - Z[0] <= 0
 R13: X[2,1] - Z[0] - Z[1] - Z[6] <= 0
 R14: X[3,1] - Z[0] - Z[2] <= 0
 R15: X[4,1] - Z[3] <= 0
 R16: X[5,1] - Z[0] <= 0
 R17: X[6,1] - Z[1] <= 0
 R18: X[7,1] <= 0
 R19: X[8,1] - Z[3] <= 0
 R20: X[9,1] - Z[2] <= 0
 R21: X[0,2] - Z[2] <= 0
 R22: X[1,2] <= 0
 R23: X[2,2] - Z[1] <= 0
 R24: X[3,2] - Z[0] - Z[2] - Z[5] <= 0
 R25: X[4,2] <= 0
 R26: X[5,2] - Z[0] <= 0
 R27: X[6,2] - Z[1] <= 0
 R28: X[7,2] <= 0
 R29: X[8,2] <= 0
 R30: X[9,2] - Z[2] <= 0
 R31: X[0,3] - Z[1] - Z[2] <= 0
 R32: X[1,3] <= 0
 R33: X[2,3] - Z[0] - Z[1] - Z[2] - Z[6] <= 0
 R34: X[3,3] - Z[0] - Z[2] - Z[5] <= 0
 R35: X[4,3] - Z[3] <= 0
 R36: X[5,3] - Z[0] <= 0
 R37: X[6,3] - Z[1] <= 0
 R38: X[7,3] <= 0
 R39: X[8,3] - Z[3] <= 0
 R40: X[9,3] - Z[2] <= 0
 R41: X[0,4] - Z[1] <= 0
 R42: X[1,4] - Z[0] <= 0
 R43: X[2,4] - Z[0] - Z[1] - Z[2] <= 0
 R44: X[3,4] - Z[0] - Z[2] <= 0
 R45: X[4,4] <= 0
 R46: X[5,4] - Z[0] <= 0
 R47: X[6,4] <= 0
 R48: X[7,4] - Z[5] <= 0
 R49: X[8,4] - Z[3] <= 0
 R50: X[9,4] - Z[2] <= 0
 R51: X[0,5] - Z[2] <= 0
 R52: X[1,5] - Z[0] <= 0
 R53: X[2,5] - Z[0] - Z[1] - Z[2] <= 0
 R54: X[3,5] - Z[0] - Z[2] - Z[5] <= 0
 R55: X[4,5] <= 0
 R56: X[5,5] - Z[0] <= 0
 R57: X[6,5] - Z[1] <= 0
 R58: X[7,5] <= 0
 R59: X[8,5] - Z[3] <= 0
 R60: X[9,5] - Z[2] <= 0
 R61: X[0,6] - Z[1] - Z[2] <= 0
 R62: X[1,6] - Z[0] <= 0
 R63: X[2,6] - Z[0] - Z[1] <= 0
 R64: X[3,6] - Z[0] - Z[2] - Z[5] <= 0
 R65: X[4,6] - Z[3] <= 0
 R66: X[5,6] <= 0
 R67: X[6,6] <= 0
 R68: X[7,6] <= 0
 R69: X[8,6] <= 0
 R70: X[9,6] - Z[2] <= 0
 R71: X[0,7] - Z[2] <= 0
 R72: X[1,7] - Z[0] <= 0
 R73: X[2,7] - Z[0] - Z[1] - Z[2] <= 0
 R74: X[3,7] - Z[0] - Z[2] <= 0
 R75: X[4,7] - Z[3] <= 0
 R76: X[5,7] - Z[0] <= 0
 R77: X[6,7] <= 0
 R78: X[7,7] <= 0
 R79: X[8,7] <= 0
 R80: X[9,7] - Z[2] <= 0
 R81: X[0,8] - Z[1] - Z[2] <= 0
 R82: X[1,8] - Z[0] <= 0
 R83: X[2,8] - Z[0] - Z[2] <= 0
 R84: X[3,8] - Z[2] - Z[5] <= 0
 R85: X[4,8] - Z[3] <= 0
 R86: X[5,8] - Z[0] <= 0
 R87: X[6,8] <= 0
 R88: X[7,8] <= 0
 R89: X[8,8] <= 0
 R90: X[9,8] - Z[2] <= 0
 R91: X[0,9] - Z[1] <= 0
 R92: X[1,9] - Z[0] <= 0
 R93: X[2,9] - Z[0] - Z[1] - Z[2] <= 0
 R94: X[3,9] - Z[0] <= 0
 R95: X[4,9] <= 0
 R96: X[5,9] <= 0
 R97: X[6,9] - Z[1] <= 0
 R98: X[7,9] <= 0
 R99: X[8,9] <= 0
 R100: X[9,9] - Z[2] <= 0
Bounds
 X[0,0] <= 1
 X[0,1] <= 1
 X[0,2] <= 1
 X[0,3] <= 1
 X[0,4] <= 1
 X[0,5] <= 1
 X[0,6] <= 1
 X[0,7] <= 1
 X[0,8] <= 1
 X[0,9] <= 1
 X[1,0] <= 1
 X[1,1] <= 1
 X[1,2] <= 1
 X[1,3] <= 1
 X[1,4] <= 1
 X[1,5] <= 1
 X[1,6] <= 1
 X[1,7] <= 1
 X[1,8] <= 1
 X[1,9] <= 1
 X[2,0] <= 1
 X[2,1] <= 1
 X[2,2] <= 1
 X[2,3] <= 1
 X[2,4] <= 1
 X[2,5] <= 1
 X[2,6] <= 1
 X[2,7] <= 1
 X[2,8] <= 1
 X[2,9] <= 1
 X[3,0] <= 1
 X[3,1] <= 1
 X[3,2] <= 1
 X[3,3] <= 1
 X[3,4] <= 1
 X[3,5] <= 1
 X[3,6] <= 1
 X[3,7] <= 1
 X[3,8] <= 1
 X[3,9] <= 1
 X[4,0] <= 1
 X[4,1] <= 1
 X[4,2] <= 1
 X[4,3] <= 1
 X[4,4] <= 1
 X[4,5] <= 1
 X[4,6] <= 1
 X[4,7] <= 1
 X[4,8] <= 1
 X[4,9] <= 1
 X[5,0] <= 1
 X[5,1] <= 1
 X[5,2] <= 1
 X[5,3] <= 1
 X[5,4] <= 1
 X[5,5] <= 1
 X[5,6] <= 1
 X[5,7] <= 1
 X[5,8] <= 1
 X[5,9] <= 1
 X[6,0] <= 1
 X[6,1] <= 1
 X[6,2] <= 1
 X[6,3] <= 1
 X[6,4] <= 1
 X[6,5] <= 1
 X[6,6] <= 1
 X[6,7] <= 1
 X[6,8] <= 1
 X[6,9] <= 1
 X[7,0] <= 1
 X[7,1] <= 1
 X[7,2] <= 1
 X[7,3] <= 1
 X[7,4] <= 1
 X[7,5] <= 1
 X[7,6] <= 1
 X[7,7] <= 1
 X[7,8] <= 1
 X[7,9] <= 1
 X[8,0] <= 1
 X[8,1] <= 1
 X[8,2] <= 1
 X[8,3] <= 1
 X[8,4] <= 1
 X[8,5] <= 1
 X[8,6] <= 1
 X[8,7] <= 1
 X[8,8] <= 1
 X[8,9] <= 1
 X[9,0] <= 1
 X[9,1] <= 1
 X[9,2] <= 1
 X[9,3] <= 1
 X[9,4] <= 1
 X[9,5] <= 1
 X[9,6] <= 1
 X[9,7] <= 1
 X[9,8] <= 1
 X[9,9] <= 1
 Z[0] <= 1
 Z[1] <= 1
 Z[2] <= 1
 Z[3] <= 1
 Z[4] <= 1
 Z[5] <= 1
 Z[6] <= 1
 Z[7] <= 1
 Z[8] <= 1
 Z[9] <= 1
Generals
 X[0,0] X[0,1] X[0,2] X[0,3] X[0,4] X[0,5] X[0,6] X[0,7] X[0,8] X[0,9]
 X[1,0] X[1,1] X[1,2] X[1,3] X[1,4] X[1,5] X[1,6] X[1,7] X[1,8] X[1,9]
 X[2,0] X[2,1] X[2,2] X[2,3] X[2,4] X[2,5] X[2,6] X[2,7] X[2,8] X[2,9]
 X[3,0] X[3,1] X[3,2] X[3,3] X[3,4] X[3,5] X[3,6] X[3,7] X[3,8] X[3,9]
 X[4,0] X[4,1] X[4,2] X[4,3] X[4,4] X[4,5] X[4,6] X[4,7] X[4,8] X[4,9]
 X[5,0] X[5,1] X[5,2] X[5,3] X[5,4] X[5,5] X[5,6] X[5,7] X[5,8] X[5,9]
 X[6,0] X[6,1] X[6,2] X[6,3] X[6,4] X[6,5] X[6,6] X[6,7] X[6,8] X[6,9]
 X[7,0] X[7,1] X[7,2] X[7,3] X[7,4] X[7,5] X[7,6] X[7,7] X[7,8] X[7,9]
 X[8,0] X[8,1] X[8,2] X[8,3] X[8,4] X[8,5] X[8,6] X[8,7] X[8,8] X[8,9]
 X[9,0] X[9,1] X[9,2] X[9,3] X[9,4] X[9,5] X[9,6] X[9,7] X[9,8] X[9,9] Z[0]
 Z[1] Z[2] Z[3] Z[4] Z[5] Z[6] Z[7] Z[8] Z[9]
End
